23 23
19
3 3 13 0
3 4 0 19
3 5 16 18
3 6 7 0
3 7 16 11
3 8 10 12
3 9 0 10
3 10 0 0
3 11 20 0
3 12 10 0
3 14 3 6
3 20 13 3
4 3 9 20
4 4 6 16
4 6 3 0
4 10 6 6
4 11 16 0
4 12 19 11
6 3 3 20
% time elapsed: 8.99 s
% time elapsed: 8.99 s
%%%mzn-stat: initTime=0.000339
%%%mzn-stat: solveTime=8.89292
%%%mzn-stat: solutions=58
%%%mzn-stat: variables=39
%%%mzn-stat: propagators=24
%%%mzn-stat: propagations=5938503
%%%mzn-stat: nodes=1382555
%%%mzn-stat: failures=687069
%%%mzn-stat: restarts=696
%%%mzn-stat: peakDepth=54
%%%mzn-stat-end
